# PYTHONPATH must include directory above plugin directory.
#     Define either externally or here, then import plugin.
sys.path.insert(0, './..')
import ugamp

molecule {
0 1
O 0.878016274377827  -0.124461407229030   0.000000000000000
H 1.448216882608140   1.477859833665838   0.000000000000000
F -0.816034084722734   0.026387767380412   0.000000000000000
no_reorient
no_com
units bohr
symmetry c1
}

set {
  freeze_core false
  r_convergence 1e-15
  e_convergence 1e-15
  ooc true
}

basis sto3gcfour {
cartesian
****
H 0
S 3 1.00
      3.42525090 0.15432900
      0.62391370 0.53532810
      0.16885540 0.44463450
****
O 0
S 3 1.00
    130.7093214 0.15432900
     23.8088661 0.53532810
      6.4436083 0.44463450
SP 3 1.00
      5.0331513 -0.09996720 0.15591630
      1.1695961 0.39951280 0.60768370
      0.3803890 0.70011550 0.39195740
****
F 0
S 3 1.00
    166.6791340 0.15432900
     30.3608123 0.53532810
      8.2168207 0.44463450
SP 3 1.00
      6.4648032 -0.09996720 0.15591630
      1.5022812 0.39951280 0.60768370
      0.4885885 0.70011550 0.39195740
****
}


energy('ugamp', wfn='mp2')

