# PYTHONPATH must include directory above plugin directory.
#     Define either externally or here, then import plugin.
sys.path.insert(0, './..')
import ugamp

molecule {
0 1
 O     -0.028962160801    -0.694396279686    -0.049338350190
 O      0.028962160801     0.694396279686    -0.049338350190
 H      0.350498145881    -0.910645626300     0.783035421467
 H     -0.350498145881     0.910645626300     0.783035421467
symmetry c1
}

set {
  freeze_core true
  basis aug-cc-pVDZ
  maxiter 1000
  restart false
}

set fvmo true
set freeze_type multi_orb
set multi_orb diplen
set num_frzv 3
energy('ugamp',wfn='mp2')
psi4.set_global_option('WFN', 'CCSD')
psi4.set_global_option('DERTYPE', 'RESPONSE')
psi4.set_global_option('PROPERTY', 'POLARIZABILITY')
mints = psi4.MintsHelper()
mints.integrals()
psi4.transqt2()
psi4.ccsort()
psi4.ccenergy()
psi4.cchbar()
psi4.cclambda()
psi4.ccresponse()
